80
21 71
21 45
21 22
71 13
71 55
53 69
53 41
53 33
69 11
69 59
32 46
32 29
32 6
46 28
46 5
2 39
2 13
2 9
39 28
39 68
29 12
29 8
37 79
37 42
37 30
79 52
79 13
11 50
11 0
52 40
52 3
14 40
14 78
14 70
40 4
42 50
42 77
20 56
20 4
20 25
56 65
56 18
35 72
35 9
35 49
72 1
72 47
9 38
10 27
10 31
10 60
27 45
27 16
6 75
6 63
75 70
75 7
50 66
34 67
34 28
34 59
67 48
67 19
70 60
57 59
57 18
57 25
49 55
49 54
55 73
1 26
1 43
7 12
7 23
12 62
26 25
26 65
45 16
17 44
17 41
17 38
44 23
44 64
5 78
5 64
78 24
41 74
74 31
74 47
15 73
15 18
15 66
73 31
23 24
47 77
77 58
66 61
63 51
63 43
24 54
36 61
36 54
36 0
61 33
64 76
43 48
48 16
58 76
58 51
76 0
4 68
8 38
8 65
3 60
3 62
68 22
51 30
62 19
22 33
30 19
